groups = 13;
numShifts = 3;
demand = [| 7, 7, 6, 6, 5, 5, 3,
          | 3, 3, 3, 3, 3, 4, 3,
          | 2, 2, 2, 2, 2, 0, 0 |];
minShift = [2, 2, 2];
maxShift = [6, 5, 4];
minOff = 1;
maxOff = 4;
minOn = 4;
maxOn = 7;
forbidden = [{}, {1}, {1,2}];
forbidden3 = [| 2, 0, 1,
              | 3, 0, 2,
              | 3, 0, 1 |];
